VFR600_40_1_Gap.txt
Set parameter Username
Academic license - for non-commercial use only - expires 2023-04-30
Set parameter Threads to value 8
Set parameter TimeLimit to value 36000
Gurobi Optimizer version 9.5.1 build v9.5.1rc2 (linux64)
Thread count: 4 physical cores, 8 logical processors, using up to 8 threads
Optimize a model with 21588000 rows, 14424001 columns and 57552000 nonzeros
Model fingerprint: 0x607e9c9d
Variable types: 24001 continuous, 14400000 integer (14400000 binary)
Coefficient statistics:
  Matrix range     [1e+00, 1e+06]
  Objective range  [1e+00, 1e+00]
  Bounds range     [1e+00, 1e+00]
  RHS range        [1e+00, 1e+06]
Presolve removed 0 rows and 24000 columns (presolve time = 5s) ...
Presolve removed 7188000 rows and 7212000 columns (presolve time = 10s) ...
Presolve removed 7188000 rows and 7212000 columns (presolve time = 15s) ...
Presolve removed 7188000 rows and 7212000 columns (presolve time = 21s) ...
Presolve removed 7188000 rows and 7212000 columns (presolve time = 25s) ...
Presolve removed 7188000 rows and 7212000 columns (presolve time = 30s) ...
Presolve removed 7188000 rows and 7212000 columns (presolve time = 35s) ...
Presolve removed 7188000 rows and 7212000 columns (presolve time = 40s) ...
Presolve removed 7188000 rows and 7212000 columns (presolve time = 45s) ...
Presolve removed 7188000 rows and 7212000 columns (presolve time = 50s) ...
Presolve removed 7188000 rows and 7212000 columns (presolve time = 55s) ...
Presolve removed 7188000 rows and 7212000 columns (presolve time = 60s) ...
Presolve removed 7188000 rows and 7212000 columns (presolve time = 67s) ...
Presolve removed 7188000 rows and 7212000 columns (presolve time = 70s) ...
Presolve removed 7188000 rows and 7212000 columns (presolve time = 75s) ...
Presolve removed 7188000 rows and 7212000 columns (presolve time = 81s) ...
Presolve removed 7188000 rows and 7212000 columns (presolve time = 107s) ...
Presolve removed 7188000 rows and 7212000 columns (presolve time = 111s) ...
Presolve removed 7188000 rows and 7212000 columns (presolve time = 119s) ...
Presolve removed 7188000 rows and 7212000 columns
Presolve time: 118.53s
Presolved: 14400000 rows, 7212001 columns, 43176000 nonzeros
Variable types: 24001 continuous, 7188000 integer (7188000 binary)
Found heuristic solution: objective 39624.000000

Deterministic concurrent LP optimizer: primal simplex, dual simplex, and barrier
Showing barrier log only...

Root barrier log...

Ordering time: 3.66s

Barrier statistics:
 Dense cols : 24001
 AA' NZ     : 1.442e+07
 Factor NZ  : 3.811e+07 (roughly 9.0 GB of memory)
 Factor Ops : 1.156e+10 (roughly 1 second per iteration)
 Threads    : 6

                  Objective                Residual
Iter       Primal          Dual         Primal    Dual     Compl     Time
   0   2.25420554e+04 -3.37185502e+09  3.40e+02 8.88e-16  2.40e+02  1006s
   1   2.69239674e+04 -1.12229171e+09  2.27e-13 1.37e-13  3.89e+01  1031s
   2   2.54344403e+04 -7.39822410e+06  1.14e-13 9.04e-14  2.58e-01  1038s
   3   4.98989431e+03 -3.56507532e+05  1.14e-13 1.19e-13  1.25e-02  1046s
   4   2.55573422e+03  1.65866765e+03  1.14e-13 6.51e-13  3.11e-05  1053s
   5   2.25981132e+04  2.33744675e+03  1.14e-13 8.22e-11  7.03e-04  1059s
   6   2.55502008e+03  2.41532843e+03  1.14e-13 3.25e-10  4.85e-06  1063s
   7   2.55500112e+03  2.55499314e+03  1.14e-13 5.95e-12  2.77e-10  1067s
   8   2.55500000e+03  2.55500000e+03  1.14e-13 1.92e-11  1.07e-15  1070s

Barrier solved model in 8 iterations and 1070.55 seconds (582.87 work units)
Optimal objective 2.55500000e+03


Root crossover log...

      40 DPushes remaining with DInf 0.0000000e+00              1091s

 7211960 PPushes remaining with PInf 0.0000000e+00              1092s
   23910 PPushes remaining with PInf 0.0000000e+00              1095s
    2873 PPushes remaining with PInf 0.0000000e+00              1102s
     923 PPushes remaining with PInf 0.0000000e+00              1108s
       0 PPushes remaining with PInf 0.0000000e+00              1121s

  Push phase complete: Pinf 0.0000000e+00, Dinf 0.0000000e+00   1122s


Root simplex log...

Iteration    Objective       Primal Inf.    Dual Inf.      Time
 7211963    2.5550000e+03   0.000000e+00   0.000000e+00   1127s
 7211963    2.5550000e+03   0.000000e+00   0.000000e+00   1169s
Concurrent spin time: 1.87s

Solved with dual simplex

Root relaxation: objective 2.555000e+03, 4693878 iterations, 310.11 seconds (73.78 work units)
Total elapsed time = 1178.15s

    Nodes    |    Current Node    |     Objective Bounds      |     Work
 Expl Unexpl |  Obj  Depth IntInf | Incumbent    BestBd   Gap | It/Node Time

     0     0 2555.00000    0 1768002 39624.0000 2555.00000  93.6%     - 4589s
     0     0          -    0      39624.0000 2555.00000  93.6%     - 36000s

Cutting planes:
  Relax-and-lift: 177

Explored 1 nodes (6723401 simplex iterations) in 36033.50 seconds (82329.50 work units)
Thread count was 8 (of 8 available processors)

Solution count 1: 39624 

Time limit reached
Best objective 3.962400000000e+04, best bound 2.555000000000e+03, gap 93.5519%
